30 108 233
1 4 2
1 6 1
1 13 4
1 14 4
1 29 1
1 30 2
2 3 1
2 5 5
2 12 1
2 13 2
2 22 1
3 6 5
3 20 3
3 24 2
3 28 5
3 30 1
4 5 3
4 6 2
4 7 4
4 8 3
4 10 5
4 13 3
4 14 1
4 15 4
4 22 4
4 23 4
4 24 2
4 26 3
5 20 4
6 14 3
6 16 4
6 21 2
6 30 2
7 10 4
7 12 1
7 15 3
7 17 2
7 19 3
7 22 1
7 25 2
8 15 4
8 17 4
8 24 1
8 29 2
8 30 3
9 10 1
9 18 5
9 29 4
10 13 5
10 14 2
10 17 2
10 18 3
10 20 2
10 24 3
10 25 5
10 27 4
11 18 5
11 19 3
11 28 2
12 15 2
12 25 4
12 29 1
12 30 2
13 15 5
13 17 3
13 26 4
13 29 5
14 18 5
14 19 1
14 20 2
15 16 3
15 17 4
15 20 1
15 21 1
15 24 4
15 28 3
16 18 4
16 20 3
16 21 1
16 22 1
16 24 3
16 28 4
16 29 3
17 18 5
17 23 4
17 26 4
17 28 4
18 26 3
18 27 3
19 21 1
19 22 2
19 25 1
19 27 1
19 29 2
20 22 4
20 26 3
20 28 1
22 24 2
22 29 3
23 25 2
23 28 5
24 28 1
25 26 5
25 28 1
26 29 1
27 30 3
28 29 3
28 30 2
